NAME : RD99A.9496.tour
COMMENT : Cost = 0_9496
COMMENT : Found by LKH [Keld Helsgaun] Sun Sep 17 16:52:41 2017
TYPE : TOUR
DIMENSION : 99
TOUR_SECTION
1
59
68
15
96
62
85
66
48
21
4
3
98
52
6
78
27
72
49
45
55
28
76
58
94
93
97
65
87
83
31
16
44
39
95
54
41
24
25
42
7
34
60
5
40
22
30
47
79
80
90
89
64
82
50
67
70
18
61
86
14
12
84
81
74
32
9
26
73
20
77
33
10
91
38
69
71
17
53
19
37
92
75
57
88
2
23
35
29
43
99
51
11
36
56
46
63
13
8
-1
EOF
